p cnf 13 38
-13 12 -8 0
13 -12 4 0
-13 -12 3 0
13 -12 -3 0
13 -11 -5 0
-13 -10 -7 0
-13 10 -4 0
-13 -9 1 0
-13 5 2 0
-13 2 -1 0
-12 -11 9 0
-12 -11 -8 0
-12 11 -8 0
12 -11 4 0
-12 -11 -3 0
12 -8 -1 0
12 -6 5 0
11 10 4 0
-11 9 8 0
-11 -4 1 0
10 -8 5 0
-10 -5 -1 0
10 5 -1 0
-9 7 -6 0
9 -5 3 0
-9 5 -1 0
-9 -3 1 0
-8 -7 -6 0
-8 -7 -5 0
-8 -3 1 0
7 5 3 0
-7 4 -1 0
-6 -4 3 0
-6 -4 1 0
6 3 -2 0
-5 -2 1 0
4 -3 2 0
4 -3 1 0
